<number of tasks>
50

<cycle time>
1000

<order strength>
0.196


<task times>
1 594
2 707
3 616
4 578
5 669
6 437
7 437
8 360
9 574
10 428
11 355
12 522
13 471
14 411
15 398
16 495
17 303
18 567
19 630
20 682
21 491
22 596
23 401
24 581
25 576
26 361
27 433
28 592
29 428
30 446
31 341
32 456
33 441
34 530
35 674
36 526
37 683
38 493
39 482
40 487
41 481
42 392
43 453
44 406
45 522
46 399
47 411
48 696
49 353
50 578

<precedence relations>
2,6
2,23
3,8
3,9
4,7
5,10
6,31
7,12
7,15
7,17
8,14
9,11
9,16
10,13
10,27
11,44
12,21
12,22
14,23
14,45
15,18
16,19
16,44
17,20
17,24
17,42
19,45
20,29
21,28
23,25
23,26
23,30
24,27
25,35
25,36
26,46
27,33
27,37
27,45
28,31
28,34
29,32
31,39
31,43
32,38
32,40
33,41
33,50
34,42
35,48
38,46
38,50
39,44
40,45
40,48
40,49
42,47

<end>
